certificates/rado_a15_c279_N58.cnf
c Rad2 upper bound instance: x1 + 15*x2 - x3 = 279, interval [1,58]
p cnf 58 448
1 7 19 0
-1 -7 -19 0
1 20 22 0
-1 -20 -22 0
1 21 37 0
-1 -21 -37 0
1 22 52 0
-1 -22 -52 0
2 8 19 0
-2 -8 -19 0
2 20 23 0
-2 -20 -23 0
2 21 38 0
-2 -21 -38 0
2 22 53 0
-2 -22 -53 0
3 9 19 0
-3 -9 -19 0
3 20 24 0
-3 -20 -24 0
3 21 39 0
-3 -21 -39 0
3 22 54 0
-3 -22 -54 0
4 10 19 0
-4 -10 -19 0
4 20 25 0
-4 -20 -25 0
4 21 40 0
-4 -21 -40 0
4 22 55 0
-4 -22 -55 0
5 11 19 0
-5 -11 -19 0
5 20 26 0
-5 -20 -26 0
5 21 41 0
-5 -21 -41 0
5 22 56 0
-5 -22 -56 0
6 12 19 0
-6 -12 -19 0
6 20 27 0
-6 -20 -27 0
6 21 42 0
-6 -21 -42 0
6 22 57 0
-6 -22 -57 0
7 13 19 0
-7 -13 -19 0
7 20 28 0
-7 -20 -28 0
7 21 43 0
-7 -21 -43 0
7 22 58 0
-7 -22 -58 0
8 14 19 0
-8 -14 -19 0
8 20 29 0
-8 -20 -29 0
8 21 44 0
-8 -21 -44 0
9 15 19 0
-9 -15 -19 0
9 20 30 0
-9 -20 -30 0
9 21 45 0
-9 -21 -45 0
1 10 18 0
-1 -10 -18 0
10 16 19 0
-10 -16 -19 0
10 20 31 0
-10 -20 -31 0
10 21 46 0
-10 -21 -46 0
2 11 18 0
-2 -11 -18 0
11 17 19 0
-11 -17 -19 0
11 20 32 0
-11 -20 -32 0
11 21 47 0
-11 -21 -47 0
3 12 18 0
-3 -12 -18 0
12 18 19 0
-12 -18 -19 0
12 20 33 0
-12 -20 -33 0
12 21 48 0
-12 -21 -48 0
4 13 18 0
-4 -13 -18 0
13 19 0
-13 -19 0
13 20 34 0
-13 -20 -34 0
13 21 49 0
-13 -21 -49 0
5 14 18 0
-5 -14 -18 0
14 19 20 0
-14 -19 -20 0
14 20 35 0
-14 -20 -35 0
14 21 50 0
-14 -21 -50 0
6 15 18 0
-6 -15 -18 0
15 19 21 0
-15 -19 -21 0
15 20 36 0
-15 -20 -36 0
15 21 51 0
-15 -21 -51 0
7 16 18 0
-7 -16 -18 0
16 19 22 0
-16 -19 -22 0
16 20 37 0
-16 -20 -37 0
16 21 52 0
-16 -21 -52 0
8 17 18 0
-8 -17 -18 0
17 19 23 0
-17 -19 -23 0
17 20 38 0
-17 -20 -38 0
17 21 53 0
-17 -21 -53 0
9 18 0
-9 -18 0
18 19 24 0
-18 -19 -24 0
18 20 39 0
-18 -20 -39 0
18 21 54 0
-18 -21 -54 0
10 18 19 0
-10 -18 -19 0
19 25 0
-19 -25 0
19 20 40 0
-19 -20 -40 0
19 21 55 0
-19 -21 -55 0
11 18 20 0
-11 -18 -20 0
19 20 26 0
-19 -20 -26 0
20 41 0
-20 -41 0
20 21 56 0
-20 -21 -56 0
12 18 21 0
-12 -18 -21 0
19 21 27 0
-19 -21 -27 0
20 21 42 0
-20 -21 -42 0
21 57 0
-21 -57 0
13 18 22 0
-13 -18 -22 0
19 22 28 0
-19 -22 -28 0
20 22 43 0
-20 -22 -43 0
21 22 58 0
-21 -22 -58 0
14 18 23 0
-14 -18 -23 0
19 23 29 0
-19 -23 -29 0
20 23 44 0
-20 -23 -44 0
15 18 24 0
-15 -18 -24 0
19 24 30 0
-19 -24 -30 0
20 24 45 0
-20 -24 -45 0
1 17 25 0
-1 -17 -25 0
16 18 25 0
-16 -18 -25 0
19 25 31 0
-19 -25 -31 0
20 25 46 0
-20 -25 -46 0
2 17 26 0
-2 -17 -26 0
17 18 26 0
-17 -18 -26 0
19 26 32 0
-19 -26 -32 0
20 26 47 0
-20 -26 -47 0
3 17 27 0
-3 -17 -27 0
18 27 0
-18 -27 0
19 27 33 0
-19 -27 -33 0
20 27 48 0
-20 -27 -48 0
4 17 28 0
-4 -17 -28 0
18 19 28 0
-18 -19 -28 0
19 28 34 0
-19 -28 -34 0
20 28 49 0
-20 -28 -49 0
5 17 29 0
-5 -17 -29 0
18 20 29 0
-18 -20 -29 0
19 29 35 0
-19 -29 -35 0
20 29 50 0
-20 -29 -50 0
6 17 30 0
-6 -17 -30 0
18 21 30 0
-18 -21 -30 0
19 30 36 0
-19 -30 -36 0
20 30 51 0
-20 -30 -51 0
7 17 31 0
-7 -17 -31 0
18 22 31 0
-18 -22 -31 0
19 31 37 0
-19 -31 -37 0
20 31 52 0
-20 -31 -52 0
8 17 32 0
-8 -17 -32 0
18 23 32 0
-18 -23 -32 0
19 32 38 0
-19 -32 -38 0
20 32 53 0
-20 -32 -53 0
9 17 33 0
-9 -17 -33 0
18 24 33 0
-18 -24 -33 0
19 33 39 0
-19 -33 -39 0
20 33 54 0
-20 -33 -54 0
10 17 34 0
-10 -17 -34 0
18 25 34 0
-18 -25 -34 0
19 34 40 0
-19 -34 -40 0
20 34 55 0
-20 -34 -55 0
11 17 35 0
-11 -17 -35 0
18 26 35 0
-18 -26 -35 0
19 35 41 0
-19 -35 -41 0
20 35 56 0
-20 -35 -56 0
12 17 36 0
-12 -17 -36 0
18 27 36 0
-18 -27 -36 0
19 36 42 0
-19 -36 -42 0
20 36 57 0
-20 -36 -57 0
13 17 37 0
-13 -17 -37 0
18 28 37 0
-18 -28 -37 0
19 37 43 0
-19 -37 -43 0
20 37 58 0
-20 -37 -58 0
14 17 38 0
-14 -17 -38 0
18 29 38 0
-18 -29 -38 0
19 38 44 0
-19 -38 -44 0
15 17 39 0
-15 -17 -39 0
18 30 39 0
-18 -30 -39 0
19 39 45 0
-19 -39 -45 0
1 16 40 0
-1 -16 -40 0
16 17 40 0
-16 -17 -40 0
18 31 40 0
-18 -31 -40 0
19 40 46 0
-19 -40 -46 0
2 16 41 0
-2 -16 -41 0
17 41 0
-17 -41 0
18 32 41 0
-18 -32 -41 0
19 41 47 0
-19 -41 -47 0
3 16 42 0
-3 -16 -42 0
17 18 42 0
-17 -18 -42 0
18 33 42 0
-18 -33 -42 0
19 42 48 0
-19 -42 -48 0
4 16 43 0
-4 -16 -43 0
17 19 43 0
-17 -19 -43 0
18 34 43 0
-18 -34 -43 0
19 43 49 0
-19 -43 -49 0
5 16 44 0
-5 -16 -44 0
17 20 44 0
-17 -20 -44 0
18 35 44 0
-18 -35 -44 0
19 44 50 0
-19 -44 -50 0
6 16 45 0
-6 -16 -45 0
17 21 45 0
-17 -21 -45 0
18 36 45 0
-18 -36 -45 0
19 45 51 0
-19 -45 -51 0
7 16 46 0
-7 -16 -46 0
17 22 46 0
-17 -22 -46 0
18 37 46 0
-18 -37 -46 0
19 46 52 0
-19 -46 -52 0
8 16 47 0
-8 -16 -47 0
17 23 47 0
-17 -23 -47 0
18 38 47 0
-18 -38 -47 0
19 47 53 0
-19 -47 -53 0
9 16 48 0
-9 -16 -48 0
17 24 48 0
-17 -24 -48 0
18 39 48 0
-18 -39 -48 0
19 48 54 0
-19 -48 -54 0
10 16 49 0
-10 -16 -49 0
17 25 49 0
-17 -25 -49 0
18 40 49 0
-18 -40 -49 0
19 49 55 0
-19 -49 -55 0
11 16 50 0
-11 -16 -50 0
17 26 50 0
-17 -26 -50 0
18 41 50 0
-18 -41 -50 0
19 50 56 0
-19 -50 -56 0
12 16 51 0
-12 -16 -51 0
17 27 51 0
-17 -27 -51 0
18 42 51 0
-18 -42 -51 0
19 51 57 0
-19 -51 -57 0
13 16 52 0
-13 -16 -52 0
17 28 52 0
-17 -28 -52 0
18 43 52 0
-18 -43 -52 0
19 52 58 0
-19 -52 -58 0
14 16 53 0
-14 -16 -53 0
17 29 53 0
-17 -29 -53 0
18 44 53 0
-18 -44 -53 0
15 16 54 0
-15 -16 -54 0
17 30 54 0
-17 -30 -54 0
18 45 54 0
-18 -45 -54 0
1 15 55 0
-1 -15 -55 0
16 55 0
-16 -55 0
17 31 55 0
-17 -31 -55 0
18 46 55 0
-18 -46 -55 0
2 15 56 0
-2 -15 -56 0
16 17 56 0
-16 -17 -56 0
17 32 56 0
-17 -32 -56 0
18 47 56 0
-18 -47 -56 0
3 15 57 0
-3 -15 -57 0
16 18 57 0
-16 -18 -57 0
17 33 57 0
-17 -33 -57 0
18 48 57 0
-18 -48 -57 0
4 15 58 0
-4 -15 -58 0
16 19 58 0
-16 -19 -58 0
17 34 58 0
-17 -34 -58 0
18 49 58 0
-18 -49 -58 0
