certificates/rado_a15_c279_N58.drat
16 21 -58 0
21 -58 0
d 16 21 -58 0
55 -58 0
-21 -58 0
d -22 -21 -58 0
-58 0
-55 0
16 0
21 0
-57 0
-52 0
19 0
-13 0
-25 0
-27 0
-15 0
-10 0
-22 0
18 0
1 0
3 0
4 0
6 0
7 0
-12 0
-9 0
-24 0
-28 0
0
